c Generated map
c Size: 15 * 15, weights in range: 1 to 10, walls: True, with ratio 0.1
c dim 4 of 4
c
p sp 225 342
c graph contains 225 nodes and 342 arcs
c
a 1 16 2
a 16 1 2
a 1 2 1
a 2 1 1
a 2 17 8
a 17 2 8
a 2 3 2
a 3 2 2
a 3 18 8
a 18 3 8
a 3 4 7
a 4 3 7
a 4 19 4
a 19 4 4
a 4 5 10
a 5 4 10
a 5 20 5
a 20 5 5
a 5 6 7
a 6 5 7
a 6 21 8
a 21 6 8
a 6 7 5
a 7 6 5
a 7 22 6
a 22 7 6
a 7 8 5
a 8 7 5
a 8 23 4
a 23 8 4
a 8 9 6
a 9 8 6
a 9 24 8
a 24 9 8
a 9 10 9
a 10 9 9
a 10 25 6
a 25 10 6
a 10 11 3
a 11 10 3
a 11 26 1
a 26 11 1
a 11 12 7
a 12 11 7
a 12 27 1
a 27 12 1
a 12 13 5
a 13 12 5
a 13 14 1
a 14 13 1
a 14 29 1
a 29 14 1
a 14 15 3
a 15 14 3
a 15 30 9
a 30 15 9
a 16 31 6
a 31 16 6
a 16 17 2
a 17 16 2
a 17 32 6
a 32 17 6
a 17 18 4
a 18 17 4
a 18 33 1
a 33 18 1
a 18 19 2
a 19 18 2
a 19 34 10
a 34 19 10
a 19 20 7
a 20 19 7
a 20 35 8
a 35 20 8
a 20 21 10
a 21 20 10
a 21 36 5
a 36 21 5
a 21 22 1
a 22 21 1
a 22 37 9
a 37 22 9
a 22 23 8
a 23 22 8
a 23 38 3
a 38 23 3
a 23 24 3
a 24 23 3
a 24 39 6
a 39 24 6
a 24 25 4
a 25 24 4
a 25 26 2
a 26 25 2
a 26 41 4
a 41 26 4
a 26 27 7
a 27 26 7
a 27 42 6
a 42 27 6
a 29 44 3
a 44 29 3
a 29 30 5
a 30 29 5
a 30 45 6
a 45 30 6
a 31 32 7
a 32 31 7
a 32 47 2
a 47 32 2
a 32 33 3
a 33 32 3
a 33 48 5
a 48 33 5
a 33 34 3
a 34 33 3
a 34 49 6
a 49 34 6
a 34 35 8
a 35 34 8
a 35 50 4
a 50 35 4
a 35 36 7
a 36 35 7
a 36 51 9
a 51 36 9
a 36 37 5
a 37 36 5
a 37 52 6
a 52 37 6
a 37 38 7
a 38 37 7
a 38 53 10
a 53 38 10
a 38 39 4
a 39 38 4
a 39 54 6
a 54 39 6
a 41 56 9
a 56 41 9
a 41 42 9
a 42 41 9
a 42 57 8
a 57 42 8
a 42 43 1
a 43 42 1
a 43 58 10
a 58 43 10
a 43 44 10
a 44 43 10
a 44 59 8
a 59 44 8
a 44 45 1
a 45 44 1
a 45 60 10
a 60 45 10
a 47 62 6
a 62 47 6
a 47 48 7
a 48 47 7
a 48 63 4
a 63 48 4
a 48 49 2
a 49 48 2
a 49 64 1
a 64 49 1
a 49 50 10
a 50 49 10
a 50 65 8
a 65 50 8
a 50 51 8
a 51 50 8
a 51 66 1
a 66 51 1
a 51 52 4
a 52 51 4
a 52 67 7
a 67 52 7
a 52 53 10
a 53 52 10
a 53 68 6
a 68 53 6
a 53 54 8
a 54 53 8
a 54 69 9
a 69 54 9
a 54 55 3
a 55 54 3
a 55 70 4
a 70 55 4
a 55 56 7
a 56 55 7
a 56 71 7
a 71 56 7
a 56 57 10
a 57 56 10
a 57 72 1
a 72 57 1
a 57 58 4
a 58 57 4
a 58 73 7
a 73 58 7
a 58 59 9
a 59 58 9
a 59 60 8
a 60 59 8
a 60 75 5
a 75 60 5
a 61 76 9
a 76 61 9
a 61 62 5
a 62 61 5
a 62 77 8
a 77 62 8
a 62 63 8
a 63 62 8
a 63 78 6
a 78 63 6
a 63 64 3
a 64 63 3
a 64 79 2
a 79 64 2
a 64 65 7
a 65 64 7
a 65 80 2
a 80 65 2
a 65 66 5
a 66 65 5
a 66 81 2
a 81 66 2
a 66 67 7
a 67 66 7
a 67 82 9
a 82 67 9
a 67 68 6
a 68 67 6
a 68 83 8
a 83 68 8
a 68 69 7
a 69 68 7
a 69 84 6
a 84 69 6
a 69 70 3
a 70 69 3
a 70 85 5
a 85 70 5
a 70 71 4
a 71 70 4
a 71 86 2
a 86 71 2
a 71 72 4
a 72 71 4
a 72 87 6
a 87 72 6
a 72 73 8
a 73 72 8
a 73 88 8
a 88 73 8
a 75 90 6
a 90 75 6
a 76 91 6
a 91 76 6
a 76 77 1
a 77 76 1
a 77 92 5
a 92 77 5
a 77 78 1
a 78 77 1
a 78 79 9
a 79 78 9
a 79 94 7
a 94 79 7
a 79 80 2
a 80 79 2
a 80 95 9
a 95 80 9
a 80 81 1
a 81 80 1
a 81 96 10
a 96 81 10
a 81 82 6
a 82 81 6
a 82 97 6
a 97 82 6
a 82 83 8
a 83 82 8
a 83 98 8
a 98 83 8
a 83 84 6
a 84 83 6
a 84 99 6
a 99 84 6
a 84 85 9
a 85 84 9
a 85 86 1
a 86 85 1
a 86 101 4
a 101 86 4
a 86 87 2
a 87 86 2
a 87 102 10
a 102 87 10
a 87 88 5
a 88 87 5
a 88 103 1
a 103 88 1
a 88 89 9
a 89 88 9
a 89 104 4
a 104 89 4
a 89 90 5
a 90 89 5
a 90 105 3
a 105 90 3
a 91 106 1
a 106 91 1
a 91 92 4
a 92 91 4
a 92 107 9
a 107 92 9
a 94 109 8
a 109 94 8
a 94 95 3
a 95 94 3
a 95 110 10
a 110 95 10
a 95 96 10
a 96 95 10
a 96 111 6
a 111 96 6
a 96 97 3
a 97 96 3
a 97 98 9
a 98 97 9
a 98 113 9
a 113 98 9
a 98 99 9
a 99 98 9
a 99 114 3
a 114 99 3
a 101 116 5
a 116 101 5
a 101 102 9
a 102 101 9
a 102 117 9
a 117 102 9
a 102 103 7
a 103 102 7
a 103 118 8
a 118 103 8
a 103 104 3
a 104 103 3
a 104 119 5
a 119 104 5
a 104 105 6
a 105 104 6
a 106 121 8
a 121 106 8
a 106 107 3
a 107 106 3
a 107 122 9
a 122 107 9
a 107 108 1
a 108 107 1
a 108 123 3
a 123 108 3
a 108 109 9
a 109 108 9
a 109 124 7
a 124 109 7
a 109 110 6
a 110 109 6
a 110 125 9
a 125 110 9
a 110 111 5
a 111 110 5
a 111 126 7
a 126 111 7
a 113 128 7
a 128 113 7
a 113 114 7
a 114 113 7
a 114 129 6
a 129 114 6
a 116 131 6
a 131 116 6
a 116 117 1
a 117 116 1
a 117 118 4
a 118 117 4
a 118 133 5
a 133 118 5
a 118 119 1
a 119 118 1
a 119 134 10
a 134 119 10
a 121 136 8
a 136 121 8
a 121 122 8
a 122 121 8
a 122 137 9
a 137 122 9
a 122 123 10
a 123 122 10
a 123 138 1
a 138 123 1
a 123 124 9
a 124 123 9
a 124 139 3
a 139 124 3
a 124 125 9
a 125 124 9
a 125 140 2
a 140 125 2
a 125 126 5
a 126 125 5
a 126 141 10
a 141 126 10
a 126 127 7
a 127 126 7
a 127 142 8
a 142 127 8
a 127 128 3
a 128 127 3
a 128 143 10
a 143 128 10
a 128 129 4
a 129 128 4
a 129 144 8
a 144 129 8
a 129 130 4
a 130 129 4
a 130 131 5
a 131 130 5
a 131 146 9
a 146 131 9
a 133 148 8
a 148 133 8
a 133 134 3
a 134 133 3
a 136 151 7
a 151 136 7
a 136 137 2
a 137 136 2
a 137 152 10
a 152 137 10
a 137 138 6
a 138 137 6
a 138 153 10
a 153 138 10
a 138 139 9
a 139 138 9
a 139 154 4
a 154 139 4
a 139 140 5
a 140 139 5
a 140 155 10
a 155 140 10
a 140 141 9
a 141 140 9
a 141 156 6
a 156 141 6
a 141 142 3
a 142 141 3
a 142 157 4
a 157 142 4
a 142 143 1
a 143 142 1
a 143 158 9
a 158 143 9
a 143 144 2
a 144 143 2
a 146 161 10
a 161 146 10
a 146 147 6
a 147 146 6
a 147 162 7
a 162 147 7
a 147 148 5
a 148 147 5
a 148 163 2
a 163 148 2
a 151 166 9
a 166 151 9
a 151 152 1
a 152 151 1
a 152 167 9
a 167 152 9
a 152 153 10
a 153 152 10
a 153 168 5
a 168 153 5
a 153 154 1
a 154 153 1
a 154 169 7
a 169 154 7
a 154 155 4
a 155 154 4
a 155 170 1
a 170 155 1
a 155 156 3
a 156 155 3
a 156 171 8
a 171 156 8
a 156 157 4
a 157 156 4
a 157 172 6
a 172 157 6
a 157 158 4
a 158 157 4
a 158 173 1
a 173 158 1
a 160 175 4
a 175 160 4
a 160 161 3
a 161 160 3
a 161 162 3
a 162 161 3
a 162 177 9
a 177 162 9
a 162 163 4
a 163 162 4
a 163 164 4
a 164 163 4
a 166 181 7
a 181 166 7
a 166 167 3
a 167 166 3
a 167 182 2
a 182 167 2
a 167 168 10
a 168 167 10
a 168 183 1
a 183 168 1
a 168 169 1
a 169 168 1
a 169 170 9
a 170 169 9
a 170 185 1
a 185 170 1
a 170 171 9
a 171 170 9
a 171 186 8
a 186 171 8
a 171 172 9
a 172 171 9
a 172 187 7
a 187 172 7
a 172 173 5
a 173 172 5
a 173 188 7
a 188 173 7
a 173 174 9
a 174 173 9
a 174 189 8
a 189 174 8
a 174 175 9
a 175 174 9
a 175 190 1
a 190 175 1
a 177 192 3
a 192 177 3
a 180 195 8
a 195 180 8
a 181 196 6
a 196 181 6
a 181 182 4
a 182 181 4
a 182 197 3
a 197 182 3
a 182 183 9
a 183 182 9
a 183 198 8
a 198 183 8
a 185 200 5
a 200 185 5
a 185 186 6
a 186 185 6
a 186 201 6
a 201 186 6
a 186 187 2
a 187 186 2
a 187 202 5
a 202 187 5
a 187 188 9
a 188 187 9
a 188 203 2
a 203 188 2
a 188 189 10
a 189 188 10
a 189 204 9
a 204 189 9
a 189 190 6
a 190 189 6
a 190 205 3
a 205 190 3
a 192 207 4
a 207 192 4
a 192 193 10
a 193 192 10
a 193 208 10
a 208 193 10
a 195 210 2
a 210 195 2
a 196 211 5
a 211 196 5
a 196 197 9
a 197 196 9
a 197 198 10
a 198 197 10
a 198 213 7
a 213 198 7
a 198 199 8
a 199 198 8
a 199 214 6
a 214 199 6
a 199 200 6
a 200 199 6
a 200 215 9
a 215 200 9
a 200 201 10
a 201 200 10
a 201 216 6
a 216 201 6
a 201 202 9
a 202 201 9
a 202 217 3
a 217 202 3
a 202 203 4
a 203 202 4
a 203 218 3
a 218 203 3
a 203 204 8
a 204 203 8
a 204 219 1
a 219 204 1
a 204 205 9
a 205 204 9
a 205 220 10
a 220 205 10
a 205 206 8
a 206 205 8
a 206 221 1
a 221 206 1
a 206 207 3
a 207 206 3
a 207 222 8
a 222 207 8
a 207 208 10
a 208 207 10
a 208 223 4
a 223 208 4
a 208 209 4
a 209 208 4
a 209 224 2
a 224 209 2
a 209 210 9
a 210 209 9
a 210 225 8
a 225 210 8
a 213 214 8
a 214 213 8
a 214 215 7
a 215 214 7
a 215 216 7
a 216 215 7
a 216 217 7
a 217 216 7
a 217 218 5
a 218 217 5
a 218 219 1
a 219 218 1
a 219 220 6
a 220 219 6
a 220 221 4
a 221 220 4
a 221 222 4
a 222 221 4
a 222 223 4
a 223 222 4
a 223 224 6
a 224 223 6
a 224 225 9
a 225 224 9
